nApps = 215
nRes = 9
nActs = 432
nNetworks = 6

assignmentToResources = [1,3,2,2,1,2,2,2,3,1,3,2,1,2,3,2,1,2,1,1,1,2,1,1,3,2,2,3,2,3,3,2,1,3,2,3,3,3,3,3,1,3,3,2,2,2,2,3,3,1,2,3,3,2,1,2,3,2,2,1,2,1,1,2,1,2,1,1,1,1,1,2,3,3,1,2,3,2,1,2,2,2,2,3,1,1,3,3,3,3,2,3,3,2,2,2,2,2,3,1,4,4,4,4,6,6,5,5,5,5,5,5,5,4,4,5,5,5,5,5,6,6,6,6,6,4,4,4,5,4,4,4,4,5,5,4,4,4,5,5,4,4,4,4,4,5,4,4,4,4,4,5,5,5,6,5,5,6,6,4,6,6,6,6,5,5,6,6,6,6,6,6,6,6,5,5,5,5,5,5,5,5,6,6,6,6,6,4,5,6,5,5,4,4,5,5,5,6,6,6,6,5,5,5,5,5,4,4,4,5,4,5,4,4,4,4,4,4,4,5,6,5,6,5,5,5,5,5,5,6,6,6,6,6,6,6,6,5,5,5,5,5,5,5,4,5,7,6,8,5,9,4,8,5,9,4,9,6,8,4,8,4,9,4,9,5,9,6,7,4,8,5,9,6,7,4,8,5,9,6,7,4,8,6,8,6,7,8,9,8,8,8,7,7,9,7,7,7,9,9,8,9,7,9,9,7,7,8,8,8,7,8,8,9,9,9,9,8,8,8,7,9,8,8,8,9,7,8,8,8,9,9,7,8,8,9,9,9,9,7,9,8,9,7,8,8,9,8,8,7,7,9,9,8,8,7,8,7,8,8,7,9,9,7,7,9,7,7,7,7,8,7,8,8,9,7,8,7,9,9,9,9,7,9,8,8,7,7,9,7,9,7,7,8,8,8,9,9,9,8,9,8,8,8,8,9,9,7,9,8,9,9,7,9,7,9,8,7,8,8,8,8,7,8,7,7,7,9,9,9,9,8];

processingTimes = [136,136,104,120,136,88,120,80,128,112,128,136,96,112,128,120,136,64,72,128,160,120,112,144,104,120,128,136,112,80,72,168,120,72,136,96,72,152,80,64,96,120,80,80,128,48,128,152,144,160,136,72,136,112,80,72,64,120,56,136,64,112,80,112,136,72,96,104,136,56,120,128,72,136,128,104,112,128,80,136,144,40,144,48,104,144,80,64,128,128,176,136,128,72,120,128,136,144,160,112,500,4,4,500,4,500,500,4,4,3,5,3,8,500,4,4,3,3,3,4,13,1000,4,500,4,3,500,4,3,7,4,4,3,4,11,3,500,5,4,4,4,5,4,500,8,5,3,500,4,4,19,500,4,4,4,5,500,1000,3,4,4,1000,4,4,3,3,500,3,4,4,4,4,1000,3,4,4,3,3,3,3,4,3,4,4,3,3,3,4,3,1000,500,4,5,4,4,3,3,3,3,3,500,500,4,500,9,100,3,3,23,8,5,4,500,3,500,4,4,3,500,4,3,3,4,3,4,4,3,4,13,1000,5,1000,4,4,4,4,4,4,4,3,4,3,3,4,500,7,7,7,7,500,500,4,4,4,4,3,3,4,4,3,3,4,4,4,4,4,4,8,8,3,3,13,13,3,3,500,500,500,500,4,4,4,4,4,4,3,3,500,4,4,500,4,500,500,4,4,3,5,3,8,500,4,4,3,3,3,4,13,1000,4,500,4,3,500,4,3,7,4,4,3,4,11,3,500,5,4,4,4,5,4,500,8,5,3,500,4,4,19,500,4,4,4,5,500,1000,3,4,4,1000,4,4,3,3,500,3,4,4,4,4,1000,3,4,4,3,3,3,3,4,3,4,4,3,3,3,4,3,1000,500,4,5,4,4,3,3,3,3,3,500,500,4,500,9,100,3,3,23,8,5,4,500,3,500,4,4,3,500,4,3,3,4,3,4,4,3,4,13,1000,5,1000,4,4,4,4,4,4,4,3,4,3,3,4,500];

periods = [20000,10000,100000,20000,10000,10000,20000,10000,20000,10000,20000,10000,10000,20000,10000,5000,100000,20000,10000,100000,20000,10000,100000,1000,20000,20000,20000,10000,10000,20000,2000,50000,100000,20000,2000,5000,100000,100000,100000,20000,10000,10000,10000,100000,100000,100000,20000,10000,20000,20000,20000,1000,10000,50000,100000,20000,10000,100000,1000,100000,10000,10000,20000,20000,20000,10000,20000,20000,10000,10000,1000,20000,10000,10000,20000,100000,20000,20000,10000,100000,20000,100000,20000,100000,100000,100000,100000,100000,50000,10000,100000,10000,5000,10000,20000,20000,100000,10000,10000,100000,20000,20000,20000,20000,10000,10000,100000,100000,100000,100000,20000,20000,20000,10000,10000,10000,10000,20000,10000,10000,20000,20000,20000,20000,20000,10000,10000,10000,10000,10000,10000,10000,10000,20000,5000,100000,100000,100000,20000,20000,10000,10000,100000,100000,20000,10000,100000,100000,100000,1000,1000,20000,20000,20000,10000,10000,10000,20000,2000,100000,20000,20000,20000,20000,2000,2000,5000,100000,100000,20000,20000,20000,10000,10000,100000,100000,100000,100000,100000,100000,100000,20000,10000,10000,20000,20000,20000,20000,20000,10000,50000,50000,100000,100000,20000,20000,20000,10000,10000,10000,10000,100000,100000,100000,1000,1000,100000,100000,100000,10000,10000,20000,20000,20000,20000,20000,20000,10000,10000,20000,10000,100000,20000,20000,20000,20000,100000,100000,100000,100000,100000,50000,50000,50000,50000,50000,10000,100000,10000,20000,20000,100000,10000,10000,100000,20000,20000,20000,20000,10000,10000,10000,10000,10000,10000,10000,10000,10000,10000,20000,20000,20000,20000,10000,10000,10000,10000,10000,10000,10000,10000,10000,10000,10000,10000,20000,20000,20000,20000,10000,10000,10000,10000,20000,20000,10000,10000,20000,20000,20000,20000,10000,10000,100000,100000,100000,100000,20000,20000,20000,10000,10000,10000,10000,20000,10000,10000,20000,20000,20000,20000,20000,10000,10000,10000,10000,10000,10000,10000,10000,20000,5000,100000,100000,100000,20000,20000,10000,10000,100000,100000,20000,10000,100000,100000,100000,1000,1000,20000,20000,20000,10000,10000,10000,20000,2000,100000,20000,20000,20000,20000,2000,2000,5000,100000,100000,20000,20000,20000,10000,10000,100000,100000,100000,100000,100000,100000,100000,20000,10000,10000,20000,20000,20000,20000,20000,10000,50000,50000,100000,100000,20000,20000,20000,10000,10000,10000,10000,100000,100000,100000,1000,1000,100000,100000,100000,10000,10000,20000,20000,20000,20000,20000,20000,10000,10000,20000,10000,100000,20000,20000,20000,20000,100000,100000,100000,100000,100000,50000,50000,50000,50000,50000,10000,100000,10000,20000,20000,100000,10000,10000,100000];

assignmentToClusters = [1,2,3,4,5,2,6,5,7,5,8,9,10,11,12,13,14,15,16,17,6,9,18,19,20,6,15,21,22,23,24,25,17,1,26,27,28,29,30,31,9,32,33,34,35,36,37,9,38,8,39,40,9,41,17,42,5,43,44,45,16,46,47,31,48,16,49,50,51,9,52,53,46,54,15,55,15,1,9,56,57,58,59,60,17,17,61,62,63,5,64,16,65,5,66,67,68,69,70,17,71,72,73,74,75,76,77,78,79,80,81,82,83,84,85,86,87,88,89,90,91,92,93,94,95,96,97,98,99,100,101,102,103,104,105,106,107,108,109,110,111,112,113,114,115,116,117,118,119,120,121,122,123,124,125,126,127,128,129,130,131,132,133,134,135,136,137,138,139,140,141,142,143,144,145,146,147,148,149,150,151,152,153,154,155,156,157,158,159,160,161,162,163,164,165,166,167,168,169,170,171,172,173,174,175,176,177,178,179,180,181,182,183,184,185,186,187,188,189,190,191,192,193,194,195,196,197,198,199,200,201,202,203,204,205,206,207,208,209,210,211,212,213,214,215,1,1,1,1,2,2,5,5,5,5,5,5,5,5,6,6,8,8,9,9,9,9,9,9,9,9,9,9,9,9,15,15,15,15,16,16,16,16,31,31,46,46,71,72,73,74,75,76,77,78,79,80,81,82,83,84,85,86,87,88,89,90,91,92,93,94,95,96,97,98,99,100,101,102,103,104,105,106,107,108,109,110,111,112,113,114,115,116,117,118,119,120,121,122,123,124,125,126,127,128,129,130,131,132,133,134,135,136,137,138,139,140,141,142,143,144,145,146,147,148,149,150,151,152,153,154,155,156,157,158,159,160,161,162,163,164,165,166,167,168,169,170,171,172,173,174,175,176,177,178,179,180,181,182,183,184,185,186,187,188,189,190,191,192,193,194,195,196,197,198,199,200,201,202,203,204,205,206,207,208,209,210,211,212,213,214,215];

precedenceAdjList = [[246],[250],[],[],[],[],[260],[252],[],[],[262],[],[],[],[],[],[],[276],[280],[],[],[270],[],[],[],[6],[17],[],[],[],[],[],[99],[],[],[],[],[],[],[],[274],[],[],[],[],[],[],[272],[],[],[],[],[264,266],[],[32],[],[89],[],[],[],[282],[286],[],[284],[],[60],[],[],[],[],[],[],[],[],[],[],[278],[248],[268],[],[],[],[],[],[99],[],[],[],[],[254,256],[],[],[],[258],[],[],[],[],[],[85,19],[],[],[],[],[],[],[],[],[],[],[],[],[],[],[],[],[],[],[],[],[],[],[],[],[],[],[],[],[],[],[],[],[],[],[],[],[],[],[],[],[],[],[],[],[],[],[],[],[],[],[],[],[],[],[],[],[],[],[],[],[],[],[],[],[],[],[],[],[],[],[],[],[],[],[],[],[],[],[],[],[],[],[],[],[],[],[],[],[],[],[],[],[],[],[],[],[],[],[],[],[],[],[],[],[],[],[],[],[],[],[],[],[],[],[],[],[],[],[],[],[],[],[],[],[],[],[],[],[],[],[],[],[],[],[],[],[],[],[],[],[],[],[],[],[],[77],[245],[33],[247],[5],[249],[4],[251],[7],[253],[9],[255],[89],[257],[20],[259],[49],[261],[69],[263],[11],[265],[52],[267],[78],[269],[21],[271],[52],[273],[74],[275],[26],[277],[91],[279],[18],[281],[39],[283],[72],[285],[100],[101],[102],[103],[104],[105],[106],[107],[108],[109],[110],[111],[112],[113],[114],[115],[116],[117],[118],[119],[120],[121],[122],[123],[124],[125],[126],[127],[128],[129],[130],[131],[132],[133],[134],[135],[136],[137],[138],[139],[140],[141],[142],[143],[144],[145],[146],[147],[148],[149],[150],[151],[152],[153],[154],[155],[156],[157],[158],[159],[160],[161],[162],[163],[164],[165],[166],[167],[168],[169],[170],[171],[172],[173],[174],[175],[176],[177],[178],[179],[180],[181],[182],[183],[184],[185],[186],[187],[188],[189],[190],[191],[192],[193],[194],[195],[196],[197],[198],[199],[200],[201],[202],[203],[204],[205],[206],[207],[208],[209],[210],[211],[212],[213],[214],[215],[216],[217],[218],[219],[220],[221],[222],[223],[224],[225],[226],[227],[228],[229],[230],[231],[232],[233],[234],[235],[236],[237],[238],[239],[240],[241],[242],[243],[244]];